\ SCIP STATISTICS
\   Problem name     : SetCover-100-200
\   Variables        : 200 (200 binary, 0 integer, 0 implicit integer, 0 continuous)
\   Constraints      : 100
Minimize
 Obj: +38 x0 +11 x1 +36 x2 +69 x3 +17 x4 +88 x5 +100 x6 +78 x7 +70 x8 +9 x9 +74 x10 +31 x11 +95 x12 +86 x13
      +93 x14 +71 x15 +83 x16 +92 x17 +1 x18 +62 x19 +97 x20 +81 x21 +18 x22 +30 x23 +58 x24 +13 x25 +2 x26
      +61 x27 +44 x28 +39 x29 +32 x30 +77 x31 +47 x32 +89 x33 +46 x34 +24 x35 +60 x36 +77 x37 +18 x38
      +81 x39 +70 x40 +14 x41 +38 x42 +41 x43 +30 x44 +17 x45 +14 x46 +70 x47 +19 x48 +89 x49 +80 x50
      +79 x51 +79 x52 +43 x53 +79 x54 +97 x55 +33 x56 +98 x57 +40 x58 +70 x59 +67 x60 +9 x61 +18 x62 +12 x63
      +71 x64 +66 x65 +22 x66 +86 x67 +85 x68 +49 x69 +57 x70 +21 x71 +64 x72 +44 x73 +89 x74 +26 x75
      +64 x76 +40 x77 +25 x78 +22 x79 +56 x80 +7 x81 +63 x82 +14 x83 +83 x84 +31 x85 +33 x86 +92 x87 +37 x88
      +59 x89 +84 x90 +4 x91 +15 x92 +29 x93 +94 x94 +54 x95 +51 x96 +45 x97 +24 x98 +91 x99 +49 x100
      +6 x101 +77 x102 +88 x103 +18 x104 +4 x105 +43 x106 +22 x107 +85 x108 +21 x109 +43 x110 +95 x111
      +25 x112 +25 x113 +69 x114 +97 x115 +3 x116 +71 x117 +36 x118 +52 x119 +28 x120 +65 x121 +15 x122
      +5 x123 +44 x124 +13 x125 +91 x126 +50 x127 +79 x128 +49 x129 +14 x130 +76 x131 +80 x132 +27 x133
      +76 x134 +89 x135 +67 x136 +34 x137 +58 x138 +4 x139 +27 x140 +17 x141 +23 x142 +29 x143 +88 x144
      +83 x145 +87 x146 +95 x147 +13 x148 +84 x149 +69 x150 +30 x151 +22 x152 +77 x153 +10 x154 +92 x155
      +85 x156 +18 x157 +67 x158 +90 x159 +69 x160 +60 x161 +9 x162 +54 x163 +91 x164 +91 x165 +48 x166
      +41 x167 +21 x168 +90 x169 +99 x170 +79 x171 +16 x172 +31 x173 +19 x174 +24 x175 +29 x176 +50 x177
      +47 x178 +89 x179 +79 x180 +91 x181 +68 x182 +33 x183 +65 x184 +43 x185 +68 x186 +25 x187 +12 x188
      +69 x189 +15 x190 +30 x191 +91 x192 +91 x193 +52 x194 +7 x195 +99 x196 +74 x197 +97 x198 +53 x199
Subject to
 c0: +1 x4 +1 x7 +1 x11 +1 x17 +1 x38 +1 x41 +1 x44 +1 x52 +1 x56 +1 x67 +1 x72 +1 x92 +1 x99 +1 x101
  +1 x104 +1 x106 +1 x113 +1 x116 +1 x118 +1 x124 +1 x126 +1 x132 +1 x137 +1 x145 +1 x156 +1 x160 +1 x172
  +1 x176 +1 x186 +1 x193 +1 x198 >= +1
 c1: +1 x6 +1 x10 +1 x52 +1 x55 +1 x60 +1 x70 +1 x78 +1 x85 +1 x91 +1 x93 +1 x103 +1 x112 +1 x115 +1 x121
  +1 x125 +1 x130 +1 x150 +1 x165 +1 x174 +1 x177 +1 x178 +1 x191 +1 x192 +1 x194 +1 x197 >= +1
 c2: +1 x6 +1 x24 +1 x30 +1 x60 +1 x74 +1 x78 +1 x79 +1 x80 +1 x84 +1 x86 +1 x87 +1 x92 +1 x101 +1 x105
  +1 x107 +1 x113 +1 x122 +1 x123 +1 x124 +1 x136 +1 x141 +1 x147 +1 x148 +1 x149 +1 x150 +1 x154 +1 x157
  +1 x159 +1 x167 +1 x182 +1 x183 +1 x188 +1 x189 +1 x196 >= +1
 c3: +1 x5 +1 x18 +1 x25 +1 x37 +1 x57 +1 x67 +1 x69 +1 x70 +1 x77 +1 x82 +1 x97 +1 x104 +1 x110 +1 x124
  +1 x129 +1 x156 +1 x160 +1 x162 +1 x163 +1 x164 +1 x165 +1 x177 +1 x185 +1 x186 +1 x188 +1 x191 +1 x194
  +1 x197 +1 x199 >= +1
 c4: +1 x5 +1 x10 +1 x11 +1 x33 +1 x52 +1 x56 +1 x59 +1 x62 +1 x70 +1 x73 +1 x74 +1 x75 +1 x76 +1 x77
  +1 x79 +1 x86 +1 x88 +1 x90 +1 x93 +1 x99 +1 x102 +1 x120 +1 x130 +1 x134 +1 x147 +1 x152 +1 x170 +1 x177
  +1 x186 +1 x197 >= +1
 c5: +1 x4 +1 x16 +1 x22 +1 x25 +1 x42 +1 x49 +1 x52 +1 x53 +1 x54 +1 x57 +1 x64 +1 x68 +1 x72 +1 x77
  +1 x90 +1 x98 +1 x108 +1 x110 +1 x118 +1 x120 +1 x127 +1 x140 +1 x150 +1 x158 +1 x161 +1 x162 +1 x186
  +1 x188 +1 x196 +1 x198 +1 x199 >= +1
 c6: +1 x3 +1 x12 +1 x25 +1 x28 +1 x46 +1 x49 +1 x52 +1 x59 +1 x60 +1 x76 +1 x78 +1 x79 +1 x86 +1 x89
  +1 x98 +1 x99 +1 x103 +1 x124 +1 x125 +1 x128 +1 x148 +1 x151 +1 x157 +1 x172 +1 x179 +1 x190 +1 x197
  +1 x198 >= +1
 c7: +1 x4 +1 x10 +1 x12 +1 x31 +1 x33 +1 x41 +1 x46 +1 x53 +1 x63 +1 x66 +1 x90 +1 x93 +1 x98 +1 x100
  +1 x118 +1 x126 +1 x127 +1 x129 +1 x134 +1 x141 +1 x153 +1 x154 +1 x156 +1 x164 +1 x166 +1 x197 >= +1
 c8: +1 x2 +1 x8 +1 x21 +1 x25 +1 x27 +1 x30 +1 x42 +1 x47 +1 x50 +1 x56 +1 x65 +1 x69 +1 x73 +1 x74 +1 x80
  +1 x89 +1 x93 +1 x98 +1 x102 +1 x104 +1 x106 +1 x108 +1 x112 +1 x113 +1 x117 +1 x123 +1 x155 +1 x160
  +1 x178 >= +1
 c9: +1 x5 +1 x8 +1 x16 +1 x19 +1 x20 +1 x21 +1 x25 +1 x29 +1 x37 +1 x43 +1 x46 +1 x54 +1 x57 +1 x60 +1 x63
  +1 x64 +1 x76 +1 x81 +1 x84 +1 x85 +1 x86 +1 x89 +1 x94 +1 x96 +1 x105 +1 x109 +1 x111 +1 x113 +1 x118
  +1 x122 +1 x126 +1 x130 +1 x139 +1 x140 +1 x146 +1 x148 +1 x152 +1 x156 +1 x161 +1 x164 +1 x171 +1 x174
  +1 x176 +1 x182 +1 x184 +1 x193 >= +1
 c10: +1 x2 +1 x7 +1 x17 +1 x47 +1 x63 +1 x76 +1 x86 +1 x87 +1 x92 +1 x100 +1 x115 +1 x116 +1 x128 +1 x129
  +1 x133 +1 x137 +1 x145 +1 x149 +1 x154 +1 x159 +1 x162 +1 x175 +1 x183 +1 x187 +1 x191 >= +1
 c11: +1 x4 +1 x8 +1 x16 +1 x29 +1 x30 +1 x39 +1 x42 +1 x44 +1 x47 +1 x48 +1 x49 +1 x53 +1 x56 +1 x70
  +1 x73 +1 x86 +1 x100 +1 x102 +1 x103 +1 x116 +1 x127 +1 x129 +1 x140 +1 x151 +1 x153 +1 x156 +1 x164
  +1 x175 +1 x177 +1 x178 +1 x181 +1 x182 +1 x183 +1 x198 >= +1
 c12: +1 x0 +1 x9 +1 x23 +1 x37 +1 x42 +1 x44 +1 x49 +1 x58 +1 x64 +1 x80 +1 x84 +1 x92 +1 x97 +1 x103
  +1 x114 +1 x122 +1 x125 +1 x127 +1 x130 +1 x133 +1 x138 +1 x139 +1 x154 +1 x162 +1 x167 +1 x172 +1 x183
  +1 x184 +1 x190 >= +1
 c13: +1 x6 +1 x18 +1 x24 +1 x46 +1 x50 +1 x54 +1 x58 +1 x61 +1 x64 +1 x65 +1 x68 +1 x71 +1 x83 +1 x88
  +1 x89 +1 x93 +1 x113 +1 x116 +1 x129 +1 x130 +1 x132 +1 x165 +1 x192 >= +1
 c14: +1 x1 +1 x15 +1 x63 +1 x73 +1 x74 +1 x84 +1 x91 +1 x93 +1 x94 +1 x98 +1 x123 +1 x126 +1 x128 +1 x131
  +1 x134 +1 x135 +1 x148 +1 x150 +1 x157 +1 x163 +1 x165 +1 x168 +1 x176 +1 x187 +1 x195 +1 x197 >= +1
 c15: +1 x4 +1 x10 +1 x16 +1 x25 +1 x27 +1 x46 +1 x50 +1 x63 +1 x73 +1 x84 +1 x91 +1 x95 +1 x104 +1 x105
  +1 x135 +1 x138 +1 x173 +1 x184 +1 x197 +1 x199 >= +1
 c16: +1 x5 +1 x7 +1 x19 +1 x22 +1 x30 +1 x31 +1 x40 +1 x41 +1 x55 +1 x58 +1 x74 +1 x97 +1 x101 +1 x108
  +1 x115 +1 x122 +1 x132 +1 x136 +1 x138 +1 x140 +1 x141 +1 x142 +1 x149 +1 x155 +1 x157 +1 x163 +1 x166
  +1 x184 +1 x188 >= +1
 c17: +1 x5 +1 x30 +1 x47 +1 x56 +1 x69 +1 x70 +1 x79 +1 x90 +1 x97 +1 x99 +1 x101 +1 x113 +1 x120 +1 x130
  +1 x134 +1 x137 +1 x140 +1 x142 +1 x154 +1 x156 +1 x157 +1 x162 +1 x165 +1 x168 +1 x176 +1 x182 +1 x183
  +1 x185 +1 x192 >= +1
 c18: +1 x0 +1 x7 +1 x20 +1 x26 +1 x27 +1 x39 +1 x40 +1 x41 +1 x60 +1 x68 +1 x80 +1 x90 +1 x98 +1 x106
  +1 x112 +1 x119 +1 x124 +1 x145 +1 x160 +1 x163 +1 x169 +1 x170 +1 x187 +1 x194 +1 x198 >= +1
 c19: +1 x2 +1 x11 +1 x13 +1 x17 +1 x28 +1 x29 +1 x30 +1 x36 +1 x39 +1 x43 +1 x47 +1 x50 +1 x83 +1 x84
  +1 x88 +1 x101 +1 x107 +1 x108 +1 x114 +1 x117 +1 x123 +1 x125 +1 x137 +1 x141 +1 x145 +1 x146 +1 x156
  +1 x157 +1 x160 +1 x172 +1 x177 +1 x180 +1 x185 +1 x187 +1 x190 +1 x199 >= +1
 c20: +1 x5 +1 x13 +1 x41 +1 x52 +1 x56 +1 x60 +1 x71 +1 x89 +1 x95 +1 x97 +1 x105 +1 x108 +1 x109 +1 x110
  +1 x116 +1 x123 +1 x131 +1 x134 +1 x141 +1 x143 +1 x150 +1 x151 +1 x161 +1 x165 +1 x168 +1 x172 +1 x177
  +1 x182 +1 x184 +1 x186 +1 x187 +1 x189 +1 x191 >= +1
 c21: +1 x5 +1 x9 +1 x10 +1 x16 +1 x17 +1 x18 +1 x22 +1 x23 +1 x26 +1 x29 +1 x35 +1 x42 +1 x59 +1 x65
  +1 x75 +1 x79 +1 x83 +1 x84 +1 x87 +1 x92 +1 x94 +1 x104 +1 x110 +1 x118 +1 x124 +1 x130 +1 x140 +1 x145
  +1 x153 +1 x157 +1 x159 +1 x163 +1 x164 +1 x172 +1 x174 +1 x178 +1 x179 +1 x182 +1 x183 +1 x188 +1 x190
  +1 x191 >= +1
 c22: +1 x4 +1 x22 +1 x40 +1 x45 +1 x51 +1 x52 +1 x58 +1 x62 +1 x71 +1 x81 +1 x104 +1 x107 +1 x115 +1 x123
  +1 x143 +1 x146 +1 x155 +1 x162 +1 x172 +1 x180 +1 x194 >= +1
 c23: +1 x5 +1 x31 +1 x35 +1 x39 +1 x48 +1 x50 +1 x56 +1 x59 +1 x60 +1 x68 +1 x75 +1 x77 +1 x87 +1 x89
  +1 x92 +1 x96 +1 x97 +1 x101 +1 x107 +1 x111 +1 x121 +1 x126 +1 x129 +1 x140 +1 x147 +1 x149 +1 x172
  +1 x175 +1 x177 +1 x178 +1 x182 +1 x183 +1 x186 +1 x188 >= +1
 c24: +1 x2 +1 x10 +1 x15 +1 x19 +1 x29 +1 x32 +1 x37 +1 x41 +1 x45 +1 x53 +1 x55 +1 x56 +1 x58 +1 x59
  +1 x61 +1 x67 +1 x81 +1 x95 +1 x103 +1 x108 +1 x109 +1 x127 +1 x147 +1 x151 +1 x153 +1 x156 +1 x160
  +1 x163 +1 x173 +1 x179 +1 x180 +1 x181 >= +1
 c25: +1 x5 +1 x9 +1 x15 +1 x21 +1 x24 +1 x25 +1 x31 +1 x41 +1 x61 +1 x63 +1 x67 +1 x68 +1 x83 +1 x88
  +1 x92 +1 x94 +1 x104 +1 x133 +1 x134 +1 x135 +1 x156 +1 x164 +1 x167 +1 x168 +1 x175 >= +1
 c26: +1 x1 +1 x8 +1 x9 +1 x11 +1 x20 +1 x21 +1 x23 +1 x39 +1 x41 +1 x42 +1 x52 +1 x67 +1 x68 +1 x70 +1 x71
  +1 x72 +1 x79 +1 x81 +1 x94 +1 x95 +1 x105 +1 x119 +1 x131 +1 x133 +1 x144 +1 x151 +1 x152 +1 x155 +1 x156
  +1 x163 +1 x167 +1 x172 +1 x179 +1 x182 +1 x185 +1 x194 >= +1
 c27: +1 x6 +1 x20 +1 x30 +1 x47 +1 x55 +1 x73 +1 x82 +1 x87 +1 x88 +1 x90 +1 x99 +1 x104 +1 x106 +1 x109
  +1 x148 +1 x152 +1 x166 +1 x167 +1 x169 +1 x170 +1 x172 +1 x177 +1 x178 +1 x180 +1 x187 +1 x188 +1 x193
  +1 x194 +1 x199 >= +1
 c28: +1 x3 +1 x15 +1 x16 +1 x27 +1 x42 +1 x56 +1 x62 +1 x63 +1 x79 +1 x87 +1 x94 +1 x96 +1 x128 +1 x137
  +1 x141 +1 x146 +1 x148 +1 x153 +1 x154 +1 x163 +1 x167 +1 x173 +1 x189 +1 x194 >= +1
 c29: +1 x3 +1 x20 +1 x23 +1 x25 +1 x34 +1 x37 +1 x42 +1 x48 +1 x59 +1 x73 +1 x83 +1 x88 +1 x93 +1 x108
  +1 x110 +1 x113 +1 x124 +1 x139 +1 x141 +1 x160 +1 x179 >= +1
 c30: +1 x0 +1 x13 +1 x30 +1 x32 +1 x40 +1 x46 +1 x51 +1 x54 +1 x72 +1 x74 +1 x79 +1 x88 +1 x93 +1 x94
  +1 x97 +1 x98 +1 x106 +1 x127 +1 x142 +1 x146 +1 x150 +1 x152 +1 x157 +1 x160 +1 x165 +1 x167 +1 x174
  +1 x181 +1 x183 +1 x184 +1 x189 +1 x192 +1 x198 >= +1
 c31: +1 x5 +1 x11 +1 x25 +1 x27 +1 x29 +1 x33 +1 x38 +1 x39 +1 x47 +1 x52 +1 x62 +1 x67 +1 x68 +1 x74
  +1 x80 +1 x90 +1 x93 +1 x100 +1 x104 +1 x112 +1 x113 +1 x116 +1 x117 +1 x120 +1 x126 +1 x132 +1 x141
  +1 x153 +1 x174 +1 x182 +1 x185 +1 x196 +1 x199 >= +1
 c32: +1 x4 +1 x9 +1 x20 +1 x40 +1 x42 +1 x53 +1 x59 +1 x61 +1 x64 +1 x68 +1 x79 +1 x83 +1 x92 +1 x103
  +1 x111 +1 x112 +1 x113 +1 x114 +1 x115 +1 x116 +1 x119 +1 x126 +1 x127 +1 x130 +1 x131 +1 x133 +1 x139
  +1 x142 +1 x160 +1 x162 +1 x190 +1 x194 >= +1
 c33: +1 x0 +1 x8 +1 x12 +1 x35 +1 x43 +1 x45 +1 x46 +1 x50 +1 x53 +1 x60 +1 x72 +1 x85 +1 x88 +1 x117
  +1 x123 +1 x128 +1 x134 +1 x153 +1 x160 +1 x161 +1 x162 +1 x165 +1 x173 +1 x174 +1 x181 +1 x184 +1 x197
  >= +1
 c34: +1 x4 +1 x14 +1 x18 +1 x21 +1 x42 +1 x45 +1 x52 +1 x63 +1 x67 +1 x71 +1 x79 +1 x82 +1 x93 +1 x107
  +1 x108 +1 x111 +1 x121 +1 x123 +1 x128 +1 x129 +1 x135 +1 x152 +1 x166 +1 x167 +1 x169 +1 x171 +1 x180
  +1 x186 +1 x188 +1 x189 +1 x194 >= +1
 c35: +1 x7 +1 x10 +1 x17 +1 x33 +1 x34 +1 x52 +1 x53 +1 x63 +1 x68 +1 x74 +1 x88 +1 x94 +1 x97 +1 x104
  +1 x107 +1 x111 +1 x113 +1 x134 +1 x137 +1 x139 +1 x144 +1 x151 +1 x154 +1 x169 +1 x174 +1 x176 +1 x182
  +1 x196 >= +1
 c36: +1 x2 +1 x8 +1 x17 +1 x18 +1 x29 +1 x31 +1 x38 +1 x48 +1 x61 +1 x69 +1 x79 +1 x108 +1 x121 +1 x131
  +1 x143 +1 x145 +1 x146 +1 x153 +1 x168 +1 x183 +1 x186 +1 x195 +1 x198 >= +1
 c37: +1 x6 +1 x11 +1 x22 +1 x27 +1 x30 +1 x36 +1 x46 +1 x47 +1 x50 +1 x56 +1 x89 +1 x97 +1 x109 +1 x110
  +1 x138 +1 x140 +1 x141 +1 x143 +1 x145 +1 x157 +1 x167 +1 x169 +1 x172 +1 x173 +1 x197 >= +1
 c38: +1 x0 +1 x7 +1 x9 +1 x15 +1 x29 +1 x40 +1 x51 +1 x53 +1 x64 +1 x70 +1 x90 +1 x95 +1 x99 +1 x103
  +1 x105 +1 x113 +1 x114 +1 x142 +1 x153 +1 x163 +1 x168 +1 x172 +1 x175 +1 x182 +1 x190 >= +1
 c39: +1 x2 +1 x14 +1 x23 +1 x25 +1 x26 +1 x37 +1 x45 +1 x58 +1 x59 +1 x62 +1 x75 +1 x88 +1 x92 +1 x98
  +1 x105 +1 x112 +1 x122 +1 x125 +1 x127 +1 x134 +1 x139 +1 x143 +1 x159 +1 x160 +1 x161 +1 x169 +1 x172
  +1 x185 +1 x188 >= +1
 c40: +1 x0 +1 x7 +1 x8 +1 x14 +1 x15 +1 x16 +1 x26 +1 x33 +1 x35 +1 x38 +1 x39 +1 x52 +1 x54 +1 x57 +1 x64
  +1 x78 +1 x84 +1 x108 +1 x126 +1 x132 +1 x135 +1 x161 +1 x164 +1 x167 +1 x169 +1 x170 +1 x171 +1 x174
  +1 x186 +1 x194 +1 x195 +1 x197 >= +1
 c41: +1 x1 +1 x9 +1 x12 +1 x16 +1 x22 +1 x25 +1 x29 +1 x31 +1 x37 +1 x44 +1 x47 +1 x57 +1 x58 +1 x62
  +1 x81 +1 x83 +1 x88 +1 x90 +1 x100 +1 x110 +1 x112 +1 x117 +1 x120 +1 x127 +1 x129 +1 x143 +1 x160
  +1 x162 +1 x172 +1 x180 +1 x184 +1 x185 +1 x193 >= +1
 c42: +1 x3 +1 x11 +1 x26 +1 x28 +1 x32 +1 x43 +1 x45 +1 x52 +1 x54 +1 x61 +1 x63 +1 x65 +1 x69 +1 x76
  +1 x88 +1 x92 +1 x95 +1 x98 +1 x103 +1 x108 +1 x118 +1 x119 +1 x130 +1 x132 +1 x137 +1 x146 +1 x152
  +1 x165 +1 x168 +1 x170 +1 x171 +1 x180 +1 x182 +1 x183 +1 x185 >= +1
 c43: +1 x6 +1 x8 +1 x11 +1 x17 +1 x19 +1 x24 +1 x31 +1 x42 +1 x44 +1 x46 +1 x49 +1 x52 +1 x65 +1 x78
  +1 x84 +1 x94 +1 x95 +1 x104 +1 x105 +1 x107 +1 x108 +1 x111 +1 x114 +1 x128 +1 x138 +1 x140 +1 x151
  +1 x153 +1 x195 >= +1
 c44: +1 x6 +1 x15 +1 x21 +1 x27 +1 x28 +1 x39 +1 x44 +1 x55 +1 x57 +1 x60 +1 x62 +1 x64 +1 x76 +1 x93
  +1 x97 +1 x98 +1 x103 +1 x104 +1 x106 +1 x119 +1 x120 +1 x126 +1 x128 +1 x137 +1 x145 +1 x149 +1 x150
  +1 x152 +1 x168 +1 x174 +1 x193 +1 x194 >= +1
 c45: +1 x3 +1 x7 +1 x10 +1 x16 +1 x22 +1 x23 +1 x31 +1 x40 +1 x42 +1 x46 +1 x60 +1 x70 +1 x72 +1 x75
  +1 x81 +1 x87 +1 x88 +1 x89 +1 x100 +1 x105 +1 x109 +1 x111 +1 x112 +1 x119 +1 x122 +1 x128 +1 x140
  +1 x143 +1 x146 +1 x151 +1 x157 +1 x165 +1 x176 +1 x182 +1 x188 >= +1
 c46: +1 x5 +1 x13 +1 x16 +1 x26 +1 x36 +1 x52 +1 x53 +1 x56 +1 x58 +1 x61 +1 x74 +1 x83 +1 x85 +1 x105
  +1 x109 +1 x128 +1 x130 +1 x132 +1 x133 +1 x141 +1 x152 +1 x153 +1 x162 +1 x188 >= +1
 c47: +1 x4 +1 x7 +1 x14 +1 x16 +1 x26 +1 x60 +1 x65 +1 x68 +1 x81 +1 x100 +1 x104 +1 x111 +1 x112 +1 x115
  +1 x117 +1 x122 +1 x123 +1 x136 +1 x137 +1 x141 +1 x146 +1 x149 +1 x155 +1 x169 +1 x170 +1 x172 +1 x185
  +1 x186 +1 x195 >= +1
 c48: +1 x3 +1 x9 +1 x14 +1 x18 +1 x20 +1 x23 +1 x33 +1 x38 +1 x42 +1 x55 +1 x64 +1 x78 +1 x79 +1 x87
  +1 x91 +1 x103 +1 x120 +1 x125 +1 x128 +1 x131 +1 x137 +1 x138 +1 x143 +1 x144 +1 x145 +1 x146 +1 x152
  +1 x153 +1 x161 +1 x167 +1 x171 +1 x173 +1 x178 +1 x180 +1 x187 +1 x194 +1 x195 >= +1
 c49: +1 x4 +1 x17 +1 x31 +1 x43 +1 x58 +1 x62 +1 x72 +1 x74 +1 x82 +1 x84 +1 x90 +1 x94 +1 x105 +1 x108
  +1 x113 +1 x118 +1 x122 +1 x129 +1 x135 +1 x138 +1 x144 +1 x177 >= +1
 c50: +1 x3 +1 x13 +1 x17 +1 x24 +1 x25 +1 x29 +1 x44 +1 x55 +1 x56 +1 x87 +1 x88 +1 x90 +1 x93 +1 x94
  +1 x96 +1 x101 +1 x107 +1 x113 +1 x114 +1 x119 +1 x121 +1 x141 +1 x150 +1 x151 +1 x162 +1 x165 +1 x169
  +1 x173 +1 x174 +1 x185 >= +1
 c51: +1 x1 +1 x13 +1 x47 +1 x61 +1 x77 +1 x78 +1 x89 +1 x101 +1 x103 +1 x106 +1 x112 +1 x116 +1 x122
  +1 x123 +1 x127 +1 x131 +1 x135 +1 x139 +1 x140 +1 x141 +1 x148 +1 x158 +1 x163 +1 x182 +1 x183 +1 x187
  +1 x189 +1 x192 >= +1
 c52: +1 x5 +1 x12 +1 x17 +1 x19 +1 x32 +1 x35 +1 x40 +1 x47 +1 x53 +1 x58 +1 x65 +1 x66 +1 x68 +1 x77
  +1 x78 +1 x79 +1 x86 +1 x94 +1 x97 +1 x98 +1 x105 +1 x106 +1 x108 +1 x127 +1 x133 +1 x154 +1 x164 +1 x188
  +1 x194 >= +1
 c53: +1 x1 +1 x13 +1 x25 +1 x28 +1 x36 +1 x37 +1 x39 +1 x52 +1 x55 +1 x57 +1 x77 +1 x78 +1 x83 +1 x89
  +1 x95 +1 x104 +1 x109 +1 x111 +1 x146 +1 x156 +1 x165 +1 x174 >= +1
 c54: +1 x2 +1 x11 +1 x14 +1 x18 +1 x19 +1 x28 +1 x34 +1 x39 +1 x44 +1 x50 +1 x67 +1 x76 +1 x80 +1 x94
  +1 x95 +1 x101 +1 x108 +1 x109 +1 x113 +1 x117 +1 x120 +1 x122 +1 x123 +1 x124 +1 x127 +1 x135 +1 x142
  +1 x145 +1 x191 +1 x197 >= +1
 c55: +1 x1 +1 x11 +1 x12 +1 x19 +1 x48 +1 x49 +1 x51 +1 x60 +1 x66 +1 x67 +1 x79 +1 x91 +1 x99 +1 x105
  +1 x118 +1 x124 +1 x128 +1 x129 +1 x131 +1 x145 +1 x147 +1 x151 +1 x163 +1 x165 +1 x171 +1 x175 +1 x178
  +1 x193 +1 x197 >= +1
 c56: +1 x6 +1 x7 +1 x9 +1 x10 +1 x19 +1 x32 +1 x37 +1 x43 +1 x45 +1 x55 +1 x60 +1 x61 +1 x65 +1 x70 +1 x76
  +1 x82 +1 x92 +1 x105 +1 x108 +1 x125 +1 x127 +1 x131 +1 x134 +1 x140 +1 x150 +1 x154 +1 x161 +1 x165
  +1 x186 >= +1
 c57: +1 x5 +1 x13 +1 x14 +1 x15 +1 x16 +1 x23 +1 x24 +1 x34 +1 x37 +1 x38 +1 x46 +1 x47 +1 x60 +1 x68
  +1 x73 +1 x88 +1 x92 +1 x93 +1 x96 +1 x104 +1 x109 +1 x113 +1 x118 +1 x121 +1 x124 +1 x135 +1 x138 +1 x144
  +1 x152 +1 x154 +1 x162 +1 x166 +1 x181 +1 x190 +1 x192 >= +1
 c58: +1 x0 +1 x18 +1 x24 +1 x30 +1 x43 +1 x77 +1 x81 +1 x82 +1 x88 +1 x91 +1 x98 +1 x105 +1 x123 +1 x139
  +1 x142 +1 x156 +1 x159 +1 x164 +1 x172 +1 x176 +1 x184 +1 x189 +1 x190 >= +1
 c59: +1 x4 +1 x12 +1 x14 +1 x24 +1 x49 +1 x52 +1 x65 +1 x66 +1 x71 +1 x83 +1 x87 +1 x88 +1 x89 +1 x96
  +1 x110 +1 x120 +1 x127 +1 x134 +1 x135 +1 x143 +1 x149 +1 x156 +1 x157 +1 x168 +1 x174 +1 x177 +1 x185
  +1 x190 +1 x193 +1 x199 >= +1
 c60: +1 x4 +1 x10 +1 x20 +1 x23 +1 x35 +1 x37 +1 x39 +1 x52 +1 x57 +1 x59 +1 x69 +1 x81 +1 x99 +1 x107
  +1 x118 +1 x122 +1 x123 +1 x127 +1 x143 +1 x150 +1 x164 +1 x178 +1 x181 +1 x184 +1 x187 +1 x189 +1 x192
  >= +1
 c61: +1 x3 +1 x8 +1 x14 +1 x18 +1 x23 +1 x25 +1 x46 +1 x51 +1 x58 +1 x59 +1 x61 +1 x64 +1 x68 +1 x82
  +1 x84 +1 x86 +1 x90 +1 x96 +1 x103 +1 x105 +1 x120 +1 x122 +1 x135 +1 x148 +1 x167 +1 x169 +1 x172
  +1 x175 +1 x180 +1 x190 +1 x193 +1 x195 +1 x197 >= +1
 c62: +1 x6 +1 x12 +1 x18 +1 x25 +1 x37 +1 x39 +1 x45 +1 x50 +1 x57 +1 x58 +1 x71 +1 x75 +1 x76 +1 x83
  +1 x84 +1 x90 +1 x102 +1 x108 +1 x109 +1 x123 +1 x131 +1 x145 +1 x151 +1 x161 +1 x166 +1 x171 +1 x184
  +1 x185 +1 x188 +1 x194 >= +1
 c63: +1 x3 +1 x20 +1 x21 +1 x26 +1 x32 +1 x35 +1 x46 +1 x47 +1 x50 +1 x52 +1 x57 +1 x58 +1 x60 +1 x73
  +1 x74 +1 x82 +1 x93 +1 x95 +1 x96 +1 x97 +1 x106 +1 x126 +1 x131 +1 x132 +1 x139 +1 x143 +1 x145 +1 x146
  +1 x157 +1 x165 +1 x167 +1 x171 +1 x176 +1 x179 +1 x184 +1 x185 +1 x191 >= +1
 c64: +1 x5 +1 x16 +1 x36 +1 x40 +1 x42 +1 x50 +1 x54 +1 x61 +1 x78 +1 x79 +1 x86 +1 x92 +1 x97 +1 x114
  +1 x115 +1 x117 +1 x123 +1 x135 +1 x140 +1 x141 +1 x142 +1 x149 +1 x158 +1 x162 +1 x163 +1 x171 +1 x172
  +1 x177 +1 x179 +1 x180 +1 x188 +1 x191 +1 x198 +1 x199 >= +1
 c65: +1 x4 +1 x9 +1 x11 +1 x12 +1 x18 +1 x22 +1 x37 +1 x42 +1 x54 +1 x70 +1 x85 +1 x87 +1 x89 +1 x97
  +1 x98 +1 x104 +1 x112 +1 x122 +1 x134 +1 x146 +1 x158 +1 x161 +1 x176 +1 x188 +1 x191 +1 x193 +1 x194
  >= +1
 c66: +1 x1 +1 x10 +1 x11 +1 x20 +1 x41 +1 x46 +1 x56 +1 x66 +1 x71 +1 x72 +1 x78 +1 x91 +1 x92 +1 x95
  +1 x99 +1 x103 +1 x104 +1 x106 +1 x115 +1 x119 +1 x120 +1 x129 +1 x130 +1 x148 +1 x182 +1 x197 >= +1
 c67: +1 x2 +1 x11 +1 x13 +1 x15 +1 x29 +1 x34 +1 x35 +1 x36 +1 x38 +1 x48 +1 x52 +1 x53 +1 x69 +1 x73
  +1 x74 +1 x75 +1 x92 +1 x101 +1 x102 +1 x105 +1 x106 +1 x109 +1 x110 +1 x133 +1 x136 +1 x137 +1 x142
  +1 x160 +1 x161 +1 x170 +1 x171 +1 x172 +1 x175 +1 x183 +1 x184 +1 x187 +1 x190 +1 x192 >= +1
 c68: +1 x2 +1 x9 +1 x10 +1 x11 +1 x45 +1 x65 +1 x68 +1 x71 +1 x74 +1 x77 +1 x78 +1 x88 +1 x89 +1 x98
  +1 x104 +1 x107 +1 x111 +1 x116 +1 x118 +1 x121 +1 x123 +1 x132 +1 x141 +1 x157 +1 x167 +1 x168 +1 x169
  +1 x186 +1 x189 +1 x191 +1 x192 +1 x199 >= +1
 c69: +1 x1 +1 x8 +1 x12 +1 x18 +1 x20 +1 x21 +1 x23 +1 x29 +1 x38 +1 x45 +1 x49 +1 x54 +1 x65 +1 x72
  +1 x80 +1 x84 +1 x85 +1 x87 +1 x93 +1 x107 +1 x110 +1 x113 +1 x118 +1 x127 +1 x128 +1 x134 +1 x135 +1 x137
  +1 x139 +1 x144 +1 x146 +1 x151 +1 x166 +1 x174 +1 x182 +1 x196 >= +1
 c70: +1 x4 +1 x17 +1 x34 +1 x36 +1 x42 +1 x51 +1 x60 +1 x68 +1 x69 +1 x87 +1 x105 +1 x115 +1 x119 +1 x120
  +1 x125 +1 x137 +1 x142 +1 x150 +1 x162 +1 x166 +1 x171 +1 x186 +1 x193 +1 x194 +1 x198 >= +1
 c71: +1 x2 +1 x8 +1 x13 +1 x15 +1 x19 +1 x24 +1 x29 +1 x37 +1 x43 +1 x54 +1 x56 +1 x76 +1 x77 +1 x82
  +1 x100 +1 x133 +1 x140 +1 x160 +1 x161 +1 x162 +1 x165 +1 x176 +1 x177 +1 x198 >= +1
 c72: +1 x0 +1 x27 +1 x30 +1 x47 +1 x50 +1 x51 +1 x55 +1 x56 +1 x61 +1 x68 +1 x80 +1 x92 +1 x108 +1 x134
  +1 x138 +1 x143 +1 x144 +1 x148 +1 x163 +1 x177 +1 x178 +1 x183 +1 x188 +1 x190 +1 x191 +1 x192 +1 x193
  >= +1
 c73: +1 x0 +1 x10 +1 x12 +1 x21 +1 x34 +1 x42 +1 x53 +1 x56 +1 x60 +1 x64 +1 x65 +1 x66 +1 x67 +1 x72
  +1 x84 +1 x88 +1 x99 +1 x104 +1 x108 +1 x109 +1 x112 +1 x113 +1 x117 +1 x142 +1 x145 +1 x146 +1 x151
  +1 x163 +1 x168 +1 x173 +1 x183 +1 x187 +1 x188 >= +1
 c74: +1 x1 +1 x14 +1 x24 +1 x34 +1 x45 +1 x50 +1 x54 +1 x65 +1 x81 +1 x97 +1 x98 +1 x119 +1 x120 +1 x121
  +1 x128 +1 x148 +1 x153 +1 x154 +1 x157 +1 x165 +1 x171 +1 x181 +1 x188 +1 x191 >= +1
 c75: +1 x0 +1 x23 +1 x29 +1 x39 +1 x41 +1 x42 +1 x48 +1 x49 +1 x60 +1 x65 +1 x66 +1 x69 +1 x82 +1 x84
  +1 x86 +1 x87 +1 x108 +1 x112 +1 x122 +1 x132 +1 x139 +1 x143 +1 x148 +1 x154 +1 x158 +1 x159 +1 x165
  +1 x167 +1 x171 +1 x172 +1 x180 +1 x181 +1 x186 +1 x191 +1 x194 >= +1
 c76: +1 x5 +1 x8 +1 x15 +1 x26 +1 x31 +1 x50 +1 x56 +1 x64 +1 x65 +1 x66 +1 x68 +1 x77 +1 x87 +1 x89
  +1 x95 +1 x100 +1 x103 +1 x108 +1 x112 +1 x114 +1 x122 +1 x132 +1 x136 +1 x142 +1 x156 +1 x167 +1 x172
  +1 x190 +1 x199 >= +1
 c77: +1 x0 +1 x16 +1 x19 +1 x30 +1 x34 +1 x48 +1 x52 +1 x64 +1 x72 +1 x84 +1 x85 +1 x116 +1 x132 +1 x138
  +1 x142 +1 x144 +1 x158 +1 x160 +1 x173 +1 x174 +1 x186 +1 x194 >= +1
 c78: +1 x2 +1 x15 +1 x27 +1 x29 +1 x34 +1 x45 +1 x48 +1 x49 +1 x51 +1 x58 +1 x67 +1 x73 +1 x78 +1 x79
  +1 x85 +1 x88 +1 x95 +1 x99 +1 x111 +1 x115 +1 x125 +1 x127 +1 x144 +1 x151 +1 x160 +1 x191 +1 x195
  >= +1
 c79: +1 x3 +1 x8 +1 x28 +1 x31 +1 x33 +1 x49 +1 x54 +1 x57 +1 x66 +1 x67 +1 x69 +1 x83 +1 x92 +1 x107
  +1 x111 +1 x124 +1 x127 +1 x134 +1 x145 +1 x149 +1 x151 +1 x155 +1 x160 +1 x163 +1 x165 +1 x169 +1 x173
  +1 x184 +1 x192 +1 x195 +1 x197 >= +1
 c80: +1 x1 +1 x9 +1 x24 +1 x29 +1 x33 +1 x35 +1 x36 +1 x40 +1 x48 +1 x52 +1 x86 +1 x94 +1 x107 +1 x115
  +1 x120 +1 x121 +1 x126 +1 x129 +1 x132 +1 x134 +1 x150 +1 x155 +1 x161 +1 x165 +1 x169 +1 x175 +1 x178
  +1 x181 +1 x189 +1 x190 +1 x194 >= +1
 c81: +1 x6 +1 x20 +1 x21 +1 x25 +1 x27 +1 x30 +1 x33 +1 x36 +1 x42 +1 x51 +1 x57 +1 x58 +1 x63 +1 x77
  +1 x78 +1 x99 +1 x101 +1 x105 +1 x116 +1 x123 +1 x127 +1 x137 +1 x140 +1 x161 +1 x167 +1 x171 +1 x176
  +1 x184 +1 x188 +1 x198 >= +1
 c82: +1 x5 +1 x17 +1 x19 +1 x21 +1 x52 +1 x55 +1 x56 +1 x59 +1 x61 +1 x68 +1 x77 +1 x78 +1 x82 +1 x83
  +1 x95 +1 x96 +1 x106 +1 x109 +1 x120 +1 x122 +1 x131 +1 x136 +1 x138 +1 x144 +1 x145 +1 x148 +1 x149
  +1 x151 +1 x152 +1 x154 +1 x155 +1 x164 +1 x169 +1 x170 +1 x174 +1 x180 +1 x185 +1 x189 +1 x193 +1 x196
  >= +1
 c83: +1 x3 +1 x7 +1 x12 +1 x13 +1 x23 +1 x28 +1 x30 +1 x34 +1 x38 +1 x40 +1 x46 +1 x49 +1 x55 +1 x65
  +1 x70 +1 x71 +1 x75 +1 x84 +1 x90 +1 x92 +1 x102 +1 x105 +1 x108 +1 x116 +1 x117 +1 x123 +1 x129 +1 x139
  +1 x154 +1 x155 +1 x159 +1 x162 +1 x163 +1 x166 +1 x189 +1 x192 >= +1
 c84: +1 x3 +1 x8 +1 x19 +1 x21 +1 x22 +1 x30 +1 x37 +1 x39 +1 x41 +1 x45 +1 x48 +1 x58 +1 x69 +1 x71
  +1 x75 +1 x88 +1 x100 +1 x118 +1 x129 +1 x137 +1 x138 +1 x140 +1 x143 +1 x146 +1 x155 +1 x157 +1 x162
  +1 x166 +1 x175 +1 x180 +1 x186 >= +1
 c85: +1 x3 +1 x19 +1 x33 +1 x40 +1 x44 +1 x55 +1 x59 +1 x70 +1 x75 +1 x80 +1 x84 +1 x86 +1 x95 +1 x107
  +1 x118 +1 x119 +1 x124 +1 x131 +1 x158 +1 x160 +1 x162 +1 x171 +1 x176 +1 x178 +1 x180 +1 x184 +1 x192
  +1 x195 +1 x196 >= +1
 c86: +1 x0 +1 x7 +1 x9 +1 x10 +1 x22 +1 x28 +1 x33 +1 x38 +1 x46 +1 x78 +1 x80 +1 x104 +1 x115 +1 x117
  +1 x119 +1 x120 +1 x122 +1 x128 +1 x131 +1 x133 +1 x134 +1 x136 +1 x144 +1 x160 +1 x162 +1 x166 +1 x176
  +1 x177 >= +1
 c87: +1 x4 +1 x14 +1 x37 +1 x39 +1 x41 +1 x91 +1 x105 +1 x116 +1 x117 +1 x120 +1 x121 +1 x122 +1 x126
  +1 x132 +1 x140 +1 x157 +1 x158 +1 x162 +1 x169 +1 x179 +1 x180 +1 x181 +1 x183 +1 x189 +1 x196 >= +1
 c88: +1 x5 +1 x7 +1 x29 +1 x38 +1 x50 +1 x61 +1 x76 +1 x80 +1 x82 +1 x83 +1 x90 +1 x101 +1 x109 +1 x114
  +1 x118 +1 x140 +1 x141 +1 x144 +1 x155 +1 x156 +1 x159 +1 x167 +1 x174 +1 x179 +1 x186 +1 x191 >= +1
 c89: +1 x1 +1 x20 +1 x27 +1 x28 +1 x43 +1 x51 +1 x68 +1 x81 +1 x96 +1 x97 +1 x98 +1 x114 +1 x116 +1 x117
  +1 x128 +1 x132 +1 x135 +1 x136 +1 x137 +1 x145 +1 x152 +1 x159 +1 x162 +1 x166 +1 x168 +1 x192 >= +1
 c90: +1 x6 +1 x10 +1 x11 +1 x17 +1 x19 +1 x31 +1 x35 +1 x38 +1 x49 +1 x64 +1 x65 +1 x69 +1 x71 +1 x76
  +1 x87 +1 x93 +1 x102 +1 x104 +1 x122 +1 x129 +1 x131 +1 x139 +1 x140 +1 x145 +1 x163 +1 x164 +1 x167
  +1 x174 +1 x176 +1 x178 +1 x181 +1 x184 +1 x187 +1 x189 +1 x193 +1 x197 >= +1
 c91: +1 x5 +1 x7 +1 x21 +1 x25 +1 x31 +1 x37 +1 x39 +1 x43 +1 x58 +1 x67 +1 x72 +1 x74 +1 x82 +1 x89
  +1 x104 +1 x105 +1 x107 +1 x114 +1 x123 +1 x124 +1 x125 +1 x130 +1 x132 +1 x142 +1 x146 +1 x150 +1 x153
  +1 x171 +1 x187 +1 x198 >= +1
 c92: +1 x4 +1 x13 +1 x19 +1 x24 +1 x26 +1 x33 +1 x42 +1 x44 +1 x59 +1 x69 +1 x87 +1 x88 +1 x99 +1 x104
  +1 x105 +1 x109 +1 x111 +1 x112 +1 x114 +1 x120 +1 x124 +1 x125 +1 x130 +1 x132 +1 x133 +1 x135 +1 x136
  +1 x137 +1 x141 +1 x145 +1 x159 +1 x167 +1 x170 +1 x179 +1 x181 +1 x185 +1 x188 +1 x198 >= +1
 c93: +1 x6 +1 x10 +1 x14 +1 x16 +1 x27 +1 x29 +1 x33 +1 x42 +1 x47 +1 x48 +1 x51 +1 x54 +1 x61 +1 x83
  +1 x84 +1 x86 +1 x89 +1 x100 +1 x102 +1 x132 +1 x133 +1 x134 +1 x136 +1 x148 +1 x158 +1 x159 +1 x161
  +1 x169 +1 x178 +1 x187 +1 x190 +1 x194 >= +1
 c94: +1 x1 +1 x14 +1 x15 +1 x33 +1 x54 +1 x55 +1 x58 +1 x68 +1 x70 +1 x73 +1 x77 +1 x78 +1 x79 +1 x80
  +1 x81 +1 x83 +1 x84 +1 x88 +1 x90 +1 x91 +1 x95 +1 x96 +1 x107 +1 x110 +1 x118 +1 x123 +1 x124 +1 x126
  +1 x132 +1 x135 +1 x136 +1 x138 +1 x143 +1 x148 +1 x154 +1 x159 +1 x176 >= +1
 c95: +1 x0 +1 x7 +1 x27 +1 x29 +1 x38 +1 x40 +1 x41 +1 x51 +1 x57 +1 x58 +1 x62 +1 x67 +1 x71 +1 x78
  +1 x83 +1 x93 +1 x94 +1 x100 +1 x108 +1 x114 +1 x118 +1 x129 +1 x135 +1 x142 +1 x150 +1 x155 +1 x162
  +1 x174 +1 x177 +1 x193 +1 x195 +1 x198 >= +1
 c96: +1 x2 +1 x8 +1 x14 +1 x19 +1 x24 +1 x25 +1 x34 +1 x37 +1 x38 +1 x40 +1 x45 +1 x53 +1 x55 +1 x62
  +1 x64 +1 x89 +1 x95 +1 x108 +1 x111 +1 x115 +1 x125 +1 x130 +1 x143 +1 x147 +1 x154 +1 x155 +1 x156
  +1 x161 +1 x163 +1 x171 +1 x175 +1 x179 +1 x186 +1 x189 >= +1
 c97: +1 x4 +1 x10 +1 x16 +1 x21 +1 x26 +1 x35 +1 x50 +1 x54 +1 x59 +1 x82 +1 x86 +1 x93 +1 x98 +1 x102
  +1 x104 +1 x107 +1 x112 +1 x114 +1 x117 +1 x121 +1 x134 +1 x135 +1 x159 +1 x164 +1 x169 +1 x176 +1 x180
  +1 x184 +1 x185 +1 x188 >= +1
 c98: +1 x5 +1 x10 +1 x11 +1 x12 +1 x26 +1 x32 +1 x38 +1 x44 +1 x45 +1 x51 +1 x58 +1 x59 +1 x62 +1 x71
  +1 x87 +1 x94 +1 x96 +1 x97 +1 x104 +1 x116 +1 x124 +1 x145 +1 x150 +1 x157 +1 x165 +1 x173 +1 x177
  +1 x180 +1 x183 +1 x184 +1 x186 +1 x196 >= +1
 c99: +1 x2 +1 x8 +1 x12 +1 x26 +1 x46 +1 x47 +1 x51 +1 x56 +1 x65 +1 x68 +1 x72 +1 x75 +1 x76 +1 x83
  +1 x93 +1 x94 +1 x97 +1 x105 +1 x111 +1 x116 +1 x119 +1 x123 +1 x128 +1 x134 +1 x142 +1 x143 +1 x144
  +1 x145 +1 x150 +1 x154 +1 x156 +1 x161 +1 x162 +1 x164 +1 x170 +1 x173 +1 x187 +1 x192 +1 x195 >= +1
Bounds
 0 <= x0 <= 1
 0 <= x1 <= 1
 0 <= x2 <= 1
 0 <= x3 <= 1
 0 <= x4 <= 1
 0 <= x5 <= 1
 0 <= x6 <= 1
 0 <= x7 <= 1
 0 <= x8 <= 1
 0 <= x9 <= 1
 0 <= x10 <= 1
 0 <= x11 <= 1
 0 <= x12 <= 1
 0 <= x13 <= 1
 0 <= x14 <= 1
 0 <= x15 <= 1
 0 <= x16 <= 1
 0 <= x17 <= 1
 0 <= x18 <= 1
 0 <= x19 <= 1
 0 <= x20 <= 1
 0 <= x21 <= 1
 0 <= x22 <= 1
 0 <= x23 <= 1
 0 <= x24 <= 1
 0 <= x25 <= 1
 0 <= x26 <= 1
 0 <= x27 <= 1
 0 <= x28 <= 1
 0 <= x29 <= 1
 0 <= x30 <= 1
 0 <= x31 <= 1
 0 <= x32 <= 1
 0 <= x33 <= 1
 0 <= x34 <= 1
 0 <= x35 <= 1
 0 <= x36 <= 1
 0 <= x37 <= 1
 0 <= x38 <= 1
 0 <= x39 <= 1
 0 <= x40 <= 1
 0 <= x41 <= 1
 0 <= x42 <= 1
 0 <= x43 <= 1
 0 <= x44 <= 1
 0 <= x45 <= 1
 0 <= x46 <= 1
 0 <= x47 <= 1
 0 <= x48 <= 1
 0 <= x49 <= 1
 0 <= x50 <= 1
 0 <= x51 <= 1
 0 <= x52 <= 1
 0 <= x53 <= 1
 0 <= x54 <= 1
 0 <= x55 <= 1
 0 <= x56 <= 1
 0 <= x57 <= 1
 0 <= x58 <= 1
 0 <= x59 <= 1
 0 <= x60 <= 1
 0 <= x61 <= 1
 0 <= x62 <= 1
 0 <= x63 <= 1
 0 <= x64 <= 1
 0 <= x65 <= 1
 0 <= x66 <= 1
 0 <= x67 <= 1
 0 <= x68 <= 1
 0 <= x69 <= 1
 0 <= x70 <= 1
 0 <= x71 <= 1
 0 <= x72 <= 1
 0 <= x73 <= 1
 0 <= x74 <= 1
 0 <= x75 <= 1
 0 <= x76 <= 1
 0 <= x77 <= 1
 0 <= x78 <= 1
 0 <= x79 <= 1
 0 <= x80 <= 1
 0 <= x81 <= 1
 0 <= x82 <= 1
 0 <= x83 <= 1
 0 <= x84 <= 1
 0 <= x85 <= 1
 0 <= x86 <= 1
 0 <= x87 <= 1
 0 <= x88 <= 1
 0 <= x89 <= 1
 0 <= x90 <= 1
 0 <= x91 <= 1
 0 <= x92 <= 1
 0 <= x93 <= 1
 0 <= x94 <= 1
 0 <= x95 <= 1
 0 <= x96 <= 1
 0 <= x97 <= 1
 0 <= x98 <= 1
 0 <= x99 <= 1
 0 <= x100 <= 1
 0 <= x101 <= 1
 0 <= x102 <= 1
 0 <= x103 <= 1
 0 <= x104 <= 1
 0 <= x105 <= 1
 0 <= x106 <= 1
 0 <= x107 <= 1
 0 <= x108 <= 1
 0 <= x109 <= 1
 0 <= x110 <= 1
 0 <= x111 <= 1
 0 <= x112 <= 1
 0 <= x113 <= 1
 0 <= x114 <= 1
 0 <= x115 <= 1
 0 <= x116 <= 1
 0 <= x117 <= 1
 0 <= x118 <= 1
 0 <= x119 <= 1
 0 <= x120 <= 1
 0 <= x121 <= 1
 0 <= x122 <= 1
 0 <= x123 <= 1
 0 <= x124 <= 1
 0 <= x125 <= 1
 0 <= x126 <= 1
 0 <= x127 <= 1
 0 <= x128 <= 1
 0 <= x129 <= 1
 0 <= x130 <= 1
 0 <= x131 <= 1
 0 <= x132 <= 1
 0 <= x133 <= 1
 0 <= x134 <= 1
 0 <= x135 <= 1
 0 <= x136 <= 1
 0 <= x137 <= 1
 0 <= x138 <= 1
 0 <= x139 <= 1
 0 <= x140 <= 1
 0 <= x141 <= 1
 0 <= x142 <= 1
 0 <= x143 <= 1
 0 <= x144 <= 1
 0 <= x145 <= 1
 0 <= x146 <= 1
 0 <= x147 <= 1
 0 <= x148 <= 1
 0 <= x149 <= 1
 0 <= x150 <= 1
 0 <= x151 <= 1
 0 <= x152 <= 1
 0 <= x153 <= 1
 0 <= x154 <= 1
 0 <= x155 <= 1
 0 <= x156 <= 1
 0 <= x157 <= 1
 0 <= x158 <= 1
 0 <= x159 <= 1
 0 <= x160 <= 1
 0 <= x161 <= 1
 0 <= x162 <= 1
 0 <= x163 <= 1
 0 <= x164 <= 1
 0 <= x165 <= 1
 0 <= x166 <= 1
 0 <= x167 <= 1
 0 <= x168 <= 1
 0 <= x169 <= 1
 0 <= x170 <= 1
 0 <= x171 <= 1
 0 <= x172 <= 1
 0 <= x173 <= 1
 0 <= x174 <= 1
 0 <= x175 <= 1
 0 <= x176 <= 1
 0 <= x177 <= 1
 0 <= x178 <= 1
 0 <= x179 <= 1
 0 <= x180 <= 1
 0 <= x181 <= 1
 0 <= x182 <= 1
 0 <= x183 <= 1
 0 <= x184 <= 1
 0 <= x185 <= 1
 0 <= x186 <= 1
 0 <= x187 <= 1
 0 <= x188 <= 1
 0 <= x189 <= 1
 0 <= x190 <= 1
 0 <= x191 <= 1
 0 <= x192 <= 1
 0 <= x193 <= 1
 0 <= x194 <= 1
 0 <= x195 <= 1
 0 <= x196 <= 1
 0 <= x197 <= 1
 0 <= x198 <= 1
 0 <= x199 <= 1
Binaries
 x0 x1 x2 x3 x4 x5 x6 x7 x8 x9 x10 x11 x12 x13 x14 x15 x16 x17 x18 x19 x20 x21 x22 x23 x24 x25 x26 x27
 x28 x29 x30 x31 x32 x33 x34 x35 x36 x37 x38 x39 x40 x41 x42 x43 x44 x45 x46 x47 x48 x49 x50 x51 x52 x53
 x54 x55 x56 x57 x58 x59 x60 x61 x62 x63 x64 x65 x66 x67 x68 x69 x70 x71 x72 x73 x74 x75 x76 x77 x78 x79
 x80 x81 x82 x83 x84 x85 x86 x87 x88 x89 x90 x91 x92 x93 x94 x95 x96 x97 x98 x99 x100 x101 x102 x103 x104
 x105 x106 x107 x108 x109 x110 x111 x112 x113 x114 x115 x116 x117 x118 x119 x120 x121 x122 x123 x124 x125
 x126 x127 x128 x129 x130 x131 x132 x133 x134 x135 x136 x137 x138 x139 x140 x141 x142 x143 x144 x145 x146
 x147 x148 x149 x150 x151 x152 x153 x154 x155 x156 x157 x158 x159 x160 x161 x162 x163 x164 x165 x166 x167
 x168 x169 x170 x171 x172 x173 x174 x175 x176 x177 x178 x179 x180 x181 x182 x183 x184 x185 x186 x187 x188
 x189 x190 x191 x192 x193 x194 x195 x196 x197 x198 x199
End
